17 18 19 20 21 742 23 24 25 26 27 235 906 3 30 31 32 856 854 35 36 37 38 39 4 40 41 42 43 456 45 46 47 48 834 892 50 51 52 53 802 55 683 57 58 59 833 60 842 62 63 64 7 883 542 1 6 12 13 14 15 16 217 385 912 778 101 102 858 104 404 106 107 108 536 34 111 112 113 114 115 692 604 340 119 441 142 122 123 816 785 160 127 830 784 130 897 132 133 134 135 718 809 138 139 140 141 432 143 144 145 146 147 682 149 780 151 878 153 888 189 234 738 158 159 561 430 162 163 164 165 166 167 44 169 831 171 172 173 174 188 176 177 792 179 180 181 853 183 184 185 294 61 508 828 190 191 192 193 194 196 197 198 729 200 201 202 697 204 205 206 850 208 698 210 863 771 213 214 333 216 154 228 195 220 808 222 223 224 225 226 249 797 229 230 634 568 601 241 391 236 237 238 239 209 54 242 243 244 420 246 247 248 466 528 251 252 530 254 255 256 257 258 259 219 261 262 263 721 265 266 519 268 269 270 271 272 273 274 275 276 701 233 886 280 281 282 283 284 285 286 287 288 289 606 291 292 293 774 295 161 297 298 299 812 301 506 303 304 305 352 307 308 309 310 311 882 312 710 315 889 317 819 319 620 321 322 323 324 325 326 327 911 329 330 414 332 334 335 336 337 338 890 884 341 342 203 344 345 212 347 348 907 350 690 764 353 354 355 356 357 358 359 360 800 362 363 364 444 366 367 368 668 370 371 372 373 374 375 376 377 378 379 823 381 382 383 384 296 386 722 388 389 390 870 392 405 394 155 396 397 398 715 400 401 402 403 346 654 406 407 587 500 410 512 412 767 454 415 260 417 765 419 746 421 422 5 424 425 426 656 428 861 91 844 673 433 434 435 436 437 438 439 440 629 745 443 879 445 446 447 448 449 409 451 452 453 749 455 207 457 458 813 460 461 462 463 464 465 598 467 468 411 470 471 472 473 474 810 476 477 478 522 480 49 482 483 711 485 486 487 33 489 227 491 492 777 494 495 496 852 498 580 693 501 502 503 505 851 507 880 509 510 725 279 513 864 516 517 518 520 29 302 855 523 873 418 526 278 527 872 529 56 900 531 532 533 534 696 427 87 22 539 399 211 908 781 543 544 545 349 578 678 795 548 549 550 551 799 840 553 554 575 555 557 570 798 592 28 826 622 615 602 318 316 559 393 118 9 560 442 562 563 408 168 423 431 416 608 566 300 564 565 573 567 380 743 788 571 594 572 314 547 574 156 576 175 579 581 105 791 582 627 556 137 583 537 585 805 253 469 688 894 739 756 591 450 593 905 772 603 515 595 83 837 596 150 865 590 597 717 703 199 720 215 599 887 178 117 605 320 607 610 796 782 835 714 727 331 611 221 731 626 612 724 866 306 794 893 343 661 909 632 429 694 672 811 609 676 910 646 231 232 686 613 617 351 618 621 186 649 820 413 623 699 824 187 741 659 839 655 736 387 687 814 716 757 793 511 657 638 600 685 245 708 624 641 639 904 671 525 827 862 625 628 770 290 630 631 633 635 640 637 98 881 644 747 313 647 735 648 65 653 753 658 493 361 66 660 662 663 847 664 665 666 669 667 170 670 152 148 675 677 541 679 68 10 744 783 680 752 475 100 758 652 689 69 691 116 750 825 832 695 250 700 277 702 704 395 705 706 709 71 589 723 712 713 540 535 136 719 877 807 72 849 841 558 651 875 484 740 891 73 730 732 733 737 157 74 643 734 645 869 821 751 754 755 75 759 76 674 761 818 763 762 514 459 768 769 77 490 128 728 775 776 684 779 78 2 707 726 577 481 789 79 790 479 845 218 499 552 80 801 109 803 804 488 806 681 584 815 124 817 82 822 120 81 129 829 773 67 125 521 614 650 836 365 838 264 84 636 843 110 846 848 85 786 497 182 748 642 857 103 86 860 868 546 766 867 240 871 524 874 876 88 787 8 121 369 569 89 339 538 70 895 896 126 898 899 90 586 901 902 903 131 267 885 760 328 92 93 94 95 96 97 99 619 504 588 616 11 859 1632 1000 1001 1002 1003 1004 1005 1006 1007 1008 1009 1010 1011 1012 1013 1014 1015 1016 1017 1018 1019 1020 1021 1022 1023 1024 1025 1026 1027 1028 1029 1030 1031 1032 1033 1034 1035 1036 1037 1038 1039 1040 1041 1042 1043 1044 1045 1046 1047 1048 1049 1050 1051 1052 1053 1054 1055 1056 1057 1058 1059 1060 1061 1062 1063 1064 1065 1066 1067 1068 1069 1070 1071 1072 1073 1074 1075 1076 1077 1078 1079 1080 1081 1082 1083 1084 1085 1086 1087 1088 1089 1090 1091 1092 1093 1094 1095 1096 1097 1098 1099 1100 1101 1102 1103 1104 1105 1106 1107 1108 1109 1110 1111 1112 1113 1114 1115 1116 1117 1118 1119 1120 1121 1122 1123 1124 1125 1126 1127 1128 1129 1130 1131 1132 1133 1134 1135 1136 1137 1138 1139 1140 1141 1142 1143 1144 1145 1146 1147 1148 1149 1150 1151 1152 1153 1154 1155 1156 1157 1158 1159 1160 1161 1162 1163 1164 1165 1166 1167 1168 1169 1170 1171 1172 1173 1174 1175 1176 1177 1178 1179 1180 1181 1182 1183 1184 1185 1186 1187 1188 1189 1190 1191 1192 1193 1194 1195 1196 1197 1198 1199 1200 1201 1202 1203 1204 1205 1206 1207 1208 1209 1210 1211 1212 1213 1214 1215 1216 1217 1218 1219 1220 1221 1222 1223 1224 1225 1226 1227 1228 1229 1230 1231 1232 1233 1234 1235 1236 1237 1238 1239 1240 1241 1242 1243 1244 1245 1246 1247 1248 1249 1250 1251 1252 1253 1254 1255 1256 1257 1258 1259 1260 1261 1262 1263 1264 1265 1266 1267 1268 1269 1270 1271 1272 1273 1274 1275 1276 1277 1278 1279 1280 1281 1282 1283 1284 1285 1286 1287 1288 1289 1290 1291 1292 1293 1294 1295 1296 1297 1298 1299 1300 1301 1302 1303 1304 1305 1306 1307 1308 1309 1310 1311 1312 1313 1314 1315 1316 1317 1318 1319 1320 1321 1322 1323 1324 1325 1326 1327 1328 1329 1330 1331 1332 1333 1334 1335 1336 1337 1338 1339 1340 1341 1342 1343 1344 1345 1346 1347 1348 1349 1350 1351 1352 1353 1354 1355 1356 1357 1358 1359 1360 1361 1362 1363 1364 1365 1366 1367 1368 1369 1370 1371 1372 1373 1374 1375 1376 1377 1378 1379 1380 1381 1382 1383 1384 1385 1386 1387 1388 1389 1390 1391 1392 1393 1394 1395 1396 1397 1398 1399 1400 1401 1402 1403 1404 1405 1406 1407 1408 1409 1410 1411 1412 1413 1414 1415 1416 1417 1418 1419 1420 1421 1422 1423 1424 1425 1426 1427 1428 1429 1430 1431 1432 1433 1434 1435 1436 1437 1438 1439 1440 1441 1442 1443 1444 1445 1446 1447 1448 1449 1450 1451 1452 1453 1454 1455 1456 1457 1458 1459 1460 1461 1462 1463 1464 1465 1466 1467 1468 1469 1470 1471 1472 1473 1474 1475 1476 1477 1478 1479 1480 1481 1482 1483 1484 1485 1486 1487 1488 1489 1490 1491 1492 1493 1494 1495 1496 1497 1498 1499 1500 1501 1502 1503 1504 1505 1506 1507 1508 1509 1510 1511 1512 1513 1514 1515 1516 1517 1518 1519 1520 1521 1522 1523 1524 1525 1526 1527 1528 1529 1530 1531 1532 1533 1534 1535 1536 1537 1538 1539 1540 1541 1542 1543 1544 1545 1546 1547 1548 1549 1550 1551 1552 1553 1554 1555 1556 1557 1558 1559 1560 1561 1562 1563 1564 1565 1566 1567 1568 1569 1570 1571 1572 1573 1574 1575 1576 1577 1578 1579 1580 1581 1582 1583 1584 1585 1586 1587 1588 1589 1590 1591 1592 1593 1594 1595 1596 1597 1598 1599 1600 1601 1602 1603 1604 1605 1606 1607 1608 1609 1610 1611 1612 1613 1614 1615 1616 1617 1618 1619 1620 1621 1622 1623 1624 1625 1626 1627 1628 1629 1630 1631 913 914 915 916 917 918 919 920 921 922 923 924 925 926 927 928 929 930 931 932 933 934 935 936 937 938 939 940 941 942 943 944 945 946 947 948 949 950 951 952 953 954 955 956 957 958 959 960 961 962 963 964 965 966 967 968 969 970 971 972 973 974 975 976 977 978 979 980 981 982 983 984 985 986 987 988 989 990 991 992 993 994 995 996 997 998 999 
